p cnf 1394
-18 -438
-19 -441
-20 -444
-21 -447
-22 -450
-23 -453
-24 -456
-25 -459
-26 -462
-27 -465
-28 -468
-29 -471
-30 -474
-31 -477
-32 -480
-33 -483
-34 -486
-35 487
-36 488
-37 489
-38 490
-39 491
-40 492
-41 493
-42 494
-43 495
-44 496
-45 497
-46 498
-47 499
-48 500
-49 -19
-49 -20
19 20 49
-50 -21
-50 -22
21 22 50
-51 -23
-51 -24
23 24 51
-52 -25
-52 -26
25 26 52
-53 -27
-53 -28
27 28 53
-54 -29
-54 -30
29 30 54
-55 -31
-55 -32
31 32 55
-56 -33
-56 -34
33 34 56
-57 -35
-57 -36
35 36 57
-58 -37
-58 -38
37 38 58
-59 -39
-59 -40
39 40 59
-60 -41
-60 -42
41 42 60
-61 -43
-61 -44
43 44 61
-62 -45
-62 -46
45 46 62
-63 -47
-63 -48
47 48 63
-64 49
-64 50
-49 -50 64
-65 51
-65 52
-51 -52 65
-66 53
-66 54
-53 -54 66
-67 55
-67 56
-55 -56 67
-68 57
-68 58
-57 -58 68
-69 59
-69 60
-59 -60 69
-70 61
-70 62
-61 -62 70
-71 64
-71 65
-64 -65 71
-72 66
-72 67
-66 -67 72
-73 68
-73 69
-68 -69 73
-74 63
-74 70
-63 -70 74
-75 71
-75 72
-71 -72 75
-76 73
-76 74
-73 -74 76
-77 75
-77 76
-75 -76 77
-78 -18
-78 19
18 -19 78
-79 18
-79 -19
-18 19 79
-80 -78
-80 -79
78 79 80
-81 18
-81 19
-18 -19 81
-82 -18
-82 -80
18 80 82
-83 18
-83 80
-18 -80 83
-84 -82
-84 -83
82 83 84
-85 18
-85 -80
-18 80 85
-86 -81
-86 -85
81 85 86
-87 -19
-87 20
19 -20 87
-88 19
-88 -20
-19 20 88
-89 -87
-89 -88
87 88 89
-90 19
-90 20
-19 -20 90
-91 86
-91 -89
-86 89 91
-92 -86
-92 89
86 -89 92
-93 -91
-93 -92
91 92 93
-94 -86
-94 -89
86 89 94
-95 -90
-95 -94
90 94 95
-96 -20
-96 21
20 -21 96
-97 20
-97 -21
-20 21 97
-98 -96
-98 -97
96 97 98
-99 20
-99 21
-20 -21 99
-100 95
-100 -98
-95 98 100
-101 -95
-101 98
95 -98 101
-102 -100
-102 -101
100 101 102
-103 -95
-103 -98
95 98 103
-104 -99
-104 -103
99 103 104
-105 -21
-105 22
21 -22 105
-106 21
-106 -22
-21 22 106
-107 -105
-107 -106
105 106 107
-108 21
-108 22
-21 -22 108
-109 104
-109 -107
-104 107 109
-110 -104
-110 107
104 -107 110
-111 -109
-111 -110
109 110 111
-112 -104
-112 -107
104 107 112
-113 -108
-113 -112
108 112 113
-114 -22
-114 23
22 -23 114
-115 22
-115 -23
-22 23 115
-116 -114
-116 -115
114 115 116
-117 22
-117 23
-22 -23 117
-118 113
-118 -116
-113 116 118
-119 -113
-119 116
113 -116 119
-120 -118
-120 -119
118 119 120
-121 -113
-121 -116
113 116 121
-122 -117
-122 -121
117 121 122
-123 -23
-123 24
23 -24 123
-124 23
-124 -24
-23 24 124
-125 -123
-125 -124
123 124 125
-126 23
-126 24
-23 -24 126
-127 122
-127 -125
-122 125 127
-128 -122
-128 125
122 -125 128
-129 -127
-129 -128
127 128 129
-130 -122
-130 -125
122 125 130
-131 -126
-131 -130
126 130 131
-132 -24
-132 25
24 -25 132
-133 24
-133 -25
-24 25 133
-134 -132
-134 -133
132 133 134
-135 24
-135 25
-24 -25 135
-136 131
-136 -134
-131 134 136
-137 -131
-137 134
131 -134 137
-138 -136
-138 -137
136 137 138
-139 -131
-139 -134
131 134 139
-140 -135
-140 -139
135 139 140
-141 -25
-141 26
25 -26 141
-142 25
-142 -26
-25 26 142
-143 -141
-143 -142
141 142 143
-144 25
-144 26
-25 -26 144
-145 140
-145 -143
-140 143 145
-146 -140
-146 143
140 -143 146
-147 -145
-147 -146
145 146 147
-148 -140
-148 -143
140 143 148
-149 -144
-149 -148
144 148 149
-150 -26
-150 27
26 -27 150
-151 26
-151 -27
-26 27 151
-152 -150
-152 -151
150 151 152
-153 26
-153 27
-26 -27 153
-154 149
-154 -152
-149 152 154
-155 -149
-155 152
149 -152 155
-156 -154
-156 -155
154 155 156
-157 -149
-157 -152
149 152 157
-158 -153
-158 -157
153 157 158
-159 -27
-159 28
27 -28 159
-160 27
-160 -28
-27 28 160
-161 -159
-161 -160
159 160 161
-162 27
-162 28
-27 -28 162
-163 158
-163 -161
-158 161 163
-164 -158
-164 161
158 -161 164
-165 -163
-165 -164
163 164 165
-166 -158
-166 -161
158 161 166
-167 -162
-167 -166
162 166 167
-168 -28
-168 29
28 -29 168
-169 28
-169 -29
-28 29 169
-170 -168
-170 -169
168 169 170
-171 28
-171 29
-28 -29 171
-172 167
-172 -170
-167 170 172
-173 -167
-173 170
167 -170 173
-174 -172
-174 -173
172 173 174
-175 -167
-175 -170
167 170 175
-176 -171
-176 -175
171 175 176
-177 -29
-177 30
29 -30 177
-178 29
-178 -30
-29 30 178
-179 -177
-179 -178
177 178 179
-180 29
-180 30
-29 -30 180
-181 176
-181 -179
-176 179 181
-182 -176
-182 179
176 -179 182
-183 -181
-183 -182
181 182 183
-184 -176
-184 -179
176 179 184
-185 -180
-185 -184
180 184 185
-186 -30
-186 31
30 -31 186
-187 30
-187 -31
-30 31 187
-188 -186
-188 -187
186 187 188
-189 30
-189 31
-30 -31 189
-190 185
-190 -188
-185 188 190
-191 -185
-191 188
185 -188 191
-192 -190
-192 -191
190 191 192
-193 -185
-193 -188
185 188 193
-194 -189
-194 -193
189 193 194
-195 -31
-195 32
31 -32 195
-196 31
-196 -32
-31 32 196
-197 -195
-197 -196
195 196 197
-198 31
-198 32
-31 -32 198
-199 194
-199 -197
-194 197 199
-200 -194
-200 197
194 -197 200
-201 -199
-201 -200
199 200 201
-202 -194
-202 -197
194 197 202
-203 -198
-203 -202
198 202 203
-204 -32
-204 33
32 -33 204
-205 32
-205 -33
-32 33 205
-206 -204
-206 -205
204 205 206
-207 32
-207 33
-32 -33 207
-208 203
-208 -206
-203 206 208
-209 -203
-209 206
203 -206 209
-210 -208
-210 -209
208 209 210
-211 -203
-211 -206
203 206 211
-212 -207
-212 -211
207 211 212
-213 -33
-213 34
33 -34 213
-214 33
-214 -34
-33 34 214
-215 -213
-215 -214
213 214 215
-216 33
-216 34
-33 -34 216
-217 212
-217 -215
-212 215 217
-218 -212
-218 215
212 -215 218
-219 -217
-219 -218
217 218 219
-220 -212
-220 -215
212 215 220
-221 -216
-221 -220
216 220 221
-222 -34
-222 35
34 -35 222
-223 34
-223 -35
-34 35 223
-224 -222
-224 -223
222 223 224
-225 34
-225 35
-34 -35 225
-226 221
-226 -224
-221 224 226
-227 -221
-227 224
221 -224 227
-228 -226
-228 -227
226 227 228
-229 -221
-229 -224
221 224 229
-230 -225
-230 -229
225 229 230
-231 -35
-231 36
35 -36 231
-232 35
-232 -36
-35 36 232
-233 -231
-233 -232
231 232 233
-234 35
-234 36
-35 -36 234
-235 230
-235 -233
-230 233 235
-236 -230
-236 233
230 -233 236
-237 -235
-237 -236
235 236 237
-238 -230
-238 -233
230 233 238
-239 -234
-239 -238
234 238 239
-240 -36
-240 37
36 -37 240
-241 36
-241 -37
-36 37 241
-242 -240
-242 -241
240 241 242
-243 36
-243 37
-36 -37 243
-244 239
-244 -242
-239 242 244
-245 -239
-245 242
239 -242 245
-246 -244
-246 -245
244 245 246
-247 -239
-247 -242
239 242 247
-248 -243
-248 -247
243 247 248
-249 -37
-249 38
37 -38 249
-250 37
-250 -38
-37 38 250
-251 -249
-251 -250
249 250 251
-252 37
-252 38
-37 -38 252
-253 248
-253 -251
-248 251 253
-254 -248
-254 251
248 -251 254
-255 -253
-255 -254
253 254 255
-256 -248
-256 -251
248 251 256
-257 -252
-257 -256
252 256 257
-258 -38
-258 39
38 -39 258
-259 38
-259 -39
-38 39 259
-260 -258
-260 -259
258 259 260
-261 38
-261 39
-38 -39 261
-262 257
-262 -260
-257 260 262
-263 -257
-263 260
257 -260 263
-264 -262
-264 -263
262 263 264
-265 -257
-265 -260
257 260 265
-266 -261
-266 -265
261 265 266
-267 -39
-267 40
39 -40 267
-268 39
-268 -40
-39 40 268
-269 -267
-269 -268
267 268 269
-270 39
-270 40
-39 -40 270
-271 266
-271 -269
-266 269 271
-272 -266
-272 269
266 -269 272
-273 -271
-273 -272
271 272 273
-274 -266
-274 -269
266 269 274
-275 -270
-275 -274
270 274 275
-276 -40
-276 41
40 -41 276
-277 40
-277 -41
-40 41 277
-278 -276
-278 -277
276 277 278
-279 40
-279 41
-40 -41 279
-280 275
-280 -278
-275 278 280
-281 -275
-281 278
275 -278 281
-282 -280
-282 -281
280 281 282
-283 -275
-283 -278
275 278 283
-284 -279
-284 -283
279 283 284
-285 -41
-285 42
41 -42 285
-286 41
-286 -42
-41 42 286
-287 -285
-287 -286
285 286 287
-288 41
-288 42
-41 -42 288
-289 284
-289 -287
-284 287 289
-290 -284
-290 287
284 -287 290
-291 -289
-291 -290
289 290 291
-292 -284
-292 -287
284 287 292
-293 -288
-293 -292
288 292 293
-294 -42
-294 43
42 -43 294
-295 42
-295 -43
-42 43 295
-296 -294
-296 -295
294 295 296
-297 42
-297 43
-42 -43 297
-298 293
-298 -296
-293 296 298
-299 -293
-299 296
293 -296 299
-300 -298
-300 -299
298 299 300
-301 -293
-301 -296
293 296 301
-302 -297
-302 -301
297 301 302
-303 -43
-303 44
43 -44 303
-304 43
-304 -44
-43 44 304
-305 -303
-305 -304
303 304 305
-306 43
-306 44
-43 -44 306
-307 302
-307 -305
-302 305 307
-308 -302
-308 305
302 -305 308
-309 -307
-309 -308
307 308 309
-310 -302
-310 -305
302 305 310
-311 -306
-311 -310
306 310 311
-312 -44
-312 45
44 -45 312
-313 44
-313 -45
-44 45 313
-314 -312
-314 -313
312 313 314
-315 44
-315 45
-44 -45 315
-316 311
-316 -314
-311 314 316
-317 -311
-317 314
311 -314 317
-318 -316
-318 -317
316 317 318
-319 -311
-319 -314
311 314 319
-320 -315
-320 -319
315 319 320
-321 -45
-321 46
45 -46 321
-322 45
-322 -46
-45 46 322
-323 -321
-323 -322
321 322 323
-324 45
-324 46
-45 -46 324
-325 320
-325 -323
-320 323 325
-326 -320
-326 323
320 -323 326
-327 -325
-327 -326
325 326 327
-328 -320
-328 -323
320 323 328
-329 -324
-329 -328
324 328 329
-330 -46
-330 47
46 -47 330
-331 46
-331 -47
-46 47 331
-332 -330
-332 -331
330 331 332
-333 46
-333 47
-46 -47 333
-334 329
-334 -332
-329 332 334
-335 -329
-335 332
329 -332 335
-336 -334
-336 -335
334 335 336
-337 -329
-337 -332
329 332 337
-338 -333
-338 -337
333 337 338
-339 -47
-339 48
47 -48 339
-340 47
-340 -48
-47 48 340
-341 -339
-341 -340
339 340 341
-342 47
-342 48
-47 -48 342
-343 338
-343 -341
-338 341 343
-344 -338
-344 341
338 -341 344
-345 -343
-345 -344
343 344 345
-346 -338
-346 -341
338 341 346
-347 -342
-347 -346
342 346 347
-348 18
-348 -84
-18 84 348
-349 -18
-349 20
18 -20 349
-350 -348
-350 -349
348 349 350
-351 18
-351 -93
-18 93 351
-352 -18
-352 21
18 -21 352
-353 -351
-353 -352
351 352 353
-354 18
-354 -102
-18 102 354
-355 -18
-355 22
18 -22 355
-356 -354
-356 -355
354 355 356
-357 18
-357 -111
-18 111 357
-358 -18
-358 23
18 -23 358
-359 -357
-359 -358
357 358 359
-360 18
-360 -120
-18 120 360
-361 -18
-361 24
18 -24 361
-362 -360
-362 -361
360 361 362
-363 18
-363 -129
-18 129 363
-364 -18
-364 25
18 -25 364
-365 -363
-365 -364
363 364 365
-366 18
-366 -138
-18 138 366
-367 -18
-367 26
18 -26 367
-368 -366
-368 -367
366 367 368
-369 18
-369 -147
-18 147 369
-370 -18
-370 27
18 -27 370
-371 -369
-371 -370
369 370 371
-372 18
-372 -156
-18 156 372
-373 -18
-373 28
18 -28 373
-374 -372
-374 -373
372 373 374
-375 18
-375 -165
-18 165 375
-376 -18
-376 29
18 -29 376
-377 -375
-377 -376
375 376 377
-378 18
-378 -174
-18 174 378
-379 -18
-379 30
18 -30 379
-380 -378
-380 -379
378 379 380
-381 18
-381 -183
-18 183 381
-382 -18
-382 31
18 -31 382
-383 -381
-383 -382
381 382 383
-384 18
-384 -192
-18 192 384
-385 -18
-385 32
18 -32 385
-386 -384
-386 -385
384 385 386
-387 18
-387 -201
-18 201 387
-388 -18
-388 33
18 -33 388
-389 -387
-389 -388
387 388 389
-390 18
-390 -210
-18 210 390
-391 -18
-391 34
18 -34 391
-392 -390
-392 -391
390 391 392
-393 18
-393 -219
-18 219 393
-394 -18
-394 35
18 -35 394
-395 -393
-395 -394
393 394 395
-396 18
-396 -228
-18 228 396
-397 -18
-397 36
18 -36 397
-398 -396
-398 -397
396 397 398
-399 18
-399 -237
-18 237 399
-400 -18
-400 37
18 -37 400
-401 -399
-401 -400
399 400 401
-402 18
-402 -246
-18 246 402
-403 -18
-403 38
18 -38 403
-404 -402
-404 -403
402 403 404
-405 18
-405 -255
-18 255 405
-406 -18
-406 39
18 -39 406
-407 -405
-407 -406
405 406 407
-408 18
-408 -264
-18 264 408
-409 -18
-409 40
18 -40 409
-410 -408
-410 -409
408 409 410
-411 18
-411 -273
-18 273 411
-412 -18
-412 41
18 -41 412
-413 -411
-413 -412
411 412 413
-414 18
-414 -282
-18 282 414
-415 -18
-415 42
18 -42 415
-416 -414
-416 -415
414 415 416
-417 18
-417 -291
-18 291 417
-418 -18
-418 43
18 -43 418
-419 -417
-419 -418
417 418 419
-420 18
-420 -300
-18 300 420
-421 -18
-421 44
18 -44 421
-422 -420
-422 -421
420 421 422
-423 18
-423 -309
-18 309 423
-424 -18
-424 45
18 -45 424
-425 -423
-425 -424
423 424 425
-426 18
-426 -318
-18 318 426
-427 -18
-427 46
18 -46 427
-428 -426
-428 -427
426 427 428
-429 18
-429 -327
-18 327 429
-430 -18
-430 47
18 -47 430
-431 -429
-431 -430
429 430 431
-432 18
-432 -336
-18 336 432
-433 -18
-433 48
18 -48 433
-434 -432
-434 -433
432 433 434
-435 18
-435 -345
-18 345 435
-436 1
-436 77
-1 -77 436
-437 -77
-437 78
77 -78 437
-438 -436
-438 -437
436 437 438
-439 2
-439 77
-2 -77 439
-440 -77
-440 -350
77 350 440
-441 -439
-441 -440
439 440 441
-442 3
-442 77
-3 -77 442
-443 -77
-443 -353
77 353 443
-444 -442
-444 -443
442 443 444
-445 4
-445 77
-4 -77 445
-446 -77
-446 -356
77 356 446
-447 -445
-447 -446
445 446 447
-448 5
-448 77
-5 -77 448
-449 -77
-449 -359
77 359 449
-450 -448
-450 -449
448 449 450
-451 6
-451 77
-6 -77 451
-452 -77
-452 -362
77 362 452
-453 -451
-453 -452
451 452 453
-454 7
-454 77
-7 -77 454
-455 -77
-455 -365
77 365 455
-456 -454
-456 -455
454 455 456
-457 8
-457 77
-8 -77 457
-458 -77
-458 -368
77 368 458
-459 -457
-459 -458
457 458 459
-460 9
-460 77
-9 -77 460
-461 -77
-461 -371
77 371 461
-462 -460
-462 -461
460 461 462
-463 10
-463 77
-10 -77 463
-464 -77
-464 -374
77 374 464
-465 -463
-465 -464
463 464 465
-466 11
-466 77
-11 -77 466
-467 -77
-467 -377
77 377 467
-468 -466
-468 -467
466 467 468
-469 12
-469 77
-12 -77 469
-470 -77
-470 -380
77 380 470
-471 -469
-471 -470
469 470 471
-472 13
-472 77
-13 -77 472
-473 -77
-473 -383
77 383 473
-474 -472
-474 -473
472 473 474
-475 14
-475 77
-14 -77 475
-476 -77
-476 -386
77 386 476
-477 -475
-477 -476
475 476 477
-478 15
-478 77
-15 -77 478
-479 -77
-479 -389
77 389 479
-480 -478
-480 -479
478 479 480
-481 16
-481 77
-16 -77 481
-482 -77
-482 -392
77 392 482
-483 -481
-483 -482
481 482 483
-484 17
-484 77
-17 -77 484
-485 -77
-485 -395
77 395 485
-486 -484
-486 -485
484 485 486
-487 -77
-487 -398
77 398 487
-488 -77
-488 -401
77 401 488
-489 -77
-489 -404
77 404 489
-490 -77
-490 -407
77 407 490
-491 -77
-491 -410
77 410 491
-492 -77
-492 -413
77 413 492
-493 -77
-493 -416
77 416 493
-494 -77
-494 -419
77 419 494
-495 -77
-495 -422
77 422 495
-496 -77
-496 -425
77 425 496
-497 -77
-497 -428
77 428 497
-498 -77
-498 -431
77 431 498
-499 -77
-499 -434
77 434 499
-500 -77
-500 435
77 -435 500
-501 -48
-501 347
48 -347 501
-502 18
-502 -501
-18 501 502
502
